words_hard_train/8839.qaiger
aag 146 16 0 1 130
2
4
8
16
28
36
50
84
100
122
138
168
192
222
236
258
292
6 2 4
10 4 8
12 5 9
14 11 13
18 15 17
20 14 16
22 19 21
24 6 22
26 25 21
30 13 28
32 12 29
34 31 33
38 35 37
40 34 36
42 39 41
44 26 43
46 27 42
48 45 47
52 48 51
54 9 29
56 55 50
58 53 57
60 7 23
62 61 25
64 63 28
66 62 29
68 3 5
70 69 7
72 71 8
74 67 72
76 65 75
78 48 50
80 77 79
82 59 81
86 56 84
88 57 85
90 87 89
92 47 41
94 33 50
96 32 51
98 95 97
102 99 101
104 98 100
106 103 105
108 92 107
110 93 106
112 109 111
114 90 112
116 83 115
118 91 113
120 117 119
124 89 123
126 88 122
128 125 127
130 111 105
132 97 84
134 96 85
136 133 135
140 137 139
142 136 138
144 141 143
146 130 145
148 131 144
150 147 149
152 128 150
154 121 153
156 129 151
158 155 157
160 149 143
162 135 122
164 134 123
166 163 165
170 167 169
172 166 168
174 171 173
176 160 175
178 161 174
180 177 179
182 50 85
184 182 122
186 184 54
188 51 85
190 189 122
194 191 193
196 190 192
198 195 197
200 187 198
202 186 199
204 201 203
206 180 204
208 159 207
210 181 205
212 209 211
214 179 173
216 165 192
218 164 193
220 217 219
224 221 223
226 220 222
228 225 227
230 214 229
232 215 228
234 231 233
238 196 237
240 197 236
242 239 241
244 243 203
246 242 202
248 245 247
250 234 248
252 213 251
254 235 249
256 253 255
260 258 236
262 259 237
264 261 263
266 264 219
268 265 218
270 267 269
272 233 227
274 271 273
276 270 272
278 275 277
280 256 278
282 281 246
284 257 279
286 285 247
288 283 287
290 281 240
292 289 291
i0 1 x2[0]
i1 2 y2[0]
i2 2 y2[1]
i3 1 x2[1]
i4 2 y2[2]
i5 1 x2[2]
i6 2 y2[3]
i7 2 y2[4]
i8 1 x2[3]
i9 2 y2[5]
i10 1 x2[4]
i11 1 x2[5]
i12 2 y2[6]
i13 1 x2[6]
i14 2 y2[7]
i15 1 x2[7]
o0 bv[0]
c
simplified
  <=
    add
      >> 1
        2 y2
      140
    subtract
      1 x2
      2 y2
