words_hard_train/8839.qaiger.qdimacs
p cnf 146 391
a 1 129 69 8 111 18 50 84 0
e 2 3 4 5 6 7 9 10 11 12 13 14 15 16 17 19 20 21 22 23 24 25 26 27 28 29 30 31 32 33 34 35 36 37 38 39 40 41 42 43 44 45 46 47 48 49 51 52 53 54 55 56 57 58 59 60 61 62 63 64 65 66 67 68 70 71 72 73 74 75 76 77 78 79 80 81 82 83 85 86 87 88 89 90 91 92 93 94 95 96 97 98 99 100 101 102 103 104 105 106 107 108 109 110 112 113 114 115 116 117 118 119 120 121 122 123 124 125 126 127 128 130 131 132 133 134 135 136 137 138 139 140 141 142 143 144 145 146 0
-1 -2 3 0
1 -3 0
2 -3 0
-2 -4 5 0
2 -5 0
4 -5 0
2 4 6 0
-2 -6 0
-4 -6 0
5 6 7 0
-5 -7 0
-6 -7 0
7 8 9 0
-7 -9 0
-8 -9 0
-7 -8 10 0
7 -10 0
8 -10 0
9 10 11 0
-9 -11 0
-10 -11 0
-3 -11 12 0
3 -12 0
11 -12 0
12 10 13 0
-12 -13 0
-10 -13 0
6 -14 15 0
-6 -15 0
14 -15 0
-6 14 16 0
6 -16 0
-14 -16 0
15 16 17 0
-15 -17 0
-16 -17 0
17 18 19 0
-17 -19 0
-18 -19 0
-17 -18 20 0
17 -20 0
18 -20 0
19 20 21 0
-19 -21 0
-20 -21 0
-13 21 22 0
13 -22 0
-21 -22 0
13 -21 23 0
-13 -23 0
21 -23 0
22 23 24 0
-22 -24 0
-23 -24 0
-24 25 26 0
24 -26 0
-25 -26 0
4 14 27 0
-4 -27 0
-14 -27 0
27 -25 28 0
-27 -28 0
25 -28 0
26 28 29 0
-26 -29 0
-28 -29 0
3 11 30 0
-3 -30 0
-11 -30 0
30 12 31 0
-30 -31 0
-12 -31 0
31 -14 32 0
-31 -32 0
14 -32 0
-31 14 33 0
31 -33 0
-14 -33 0
1 2 34 0
-1 -34 0
-2 -34 0
34 3 35 0
-34 -35 0
-3 -35 0
35 -4 36 0
-35 -36 0
4 -36 0
33 -36 37 0
-33 -37 0
36 -37 0
32 37 38 0
-32 -38 0
-37 -38 0
-24 -25 39 0
24 -39 0
25 -39 0
38 39 40 0
-38 -40 0
-39 -40 0
29 40 41 0
-29 -41 0
-40 -41 0
-28 -42 43 0
28 -43 0
42 -43 0
28 42 44 0
-28 -44 0
-42 -44 0
43 44 45 0
-43 -45 0
-44 -45 0
23 20 46 0
-23 -46 0
-20 -46 0
16 -25 47 0
-16 -47 0
25 -47 0
-16 25 48 0
16 -48 0
-25 -48 0
47 48 49 0
-47 -49 0
-48 -49 0
49 50 51 0
-49 -51 0
-50 -51 0
-49 -50 52 0
49 -52 0
50 -52 0
51 52 53 0
-51 -53 0
-52 -53 0
-46 53 54 0
46 -54 0
-53 -54 0
46 -53 55 0
-46 -55 0
53 -55 0
54 55 56 0
-54 -56 0
-55 -56 0
-45 -56 57 0
45 -57 0
56 -57 0
41 57 58 0
-41 -58 0
-57 -58 0
45 56 59 0
-45 -59 0
-56 -59 0
58 59 60 0
-58 -60 0
-59 -60 0
44 61 62 0
-44 -62 0
-61 -62 0
-44 -61 63 0
44 -63 0
61 -63 0
62 63 64 0
-62 -64 0
-63 -64 0
55 52 65 0
-55 -65 0
-52 -65 0
48 -42 66 0
-48 -66 0
42 -66 0
-48 42 67 0
48 -67 0
-42 -67 0
66 67 68 0
-66 -68 0
-67 -68 0
68 69 70 0
-68 -70 0
-69 -70 0
-68 -69 71 0
68 -71 0
69 -71 0
70 71 72 0
-70 -72 0
-71 -72 0
-65 72 73 0
65 -73 0
-72 -73 0
65 -72 74 0
-65 -74 0
72 -74 0
73 74 75 0
-73 -75 0
-74 -75 0
-64 -75 76 0
64 -76 0
75 -76 0
60 76 77 0
-60 -77 0
-76 -77 0
64 75 78 0
-64 -78 0
-75 -78 0
77 78 79 0
-77 -79 0
-78 -79 0
74 71 80 0
-74 -80 0
-71 -80 0
67 -61 81 0
-67 -81 0
61 -81 0
-67 61 82 0
67 -82 0
-61 -82 0
81 82 83 0
-81 -83 0
-82 -83 0
83 84 85 0
-83 -85 0
-84 -85 0
-83 -84 86 0
83 -86 0
84 -86 0
85 86 87 0
-85 -87 0
-86 -87 0
-80 87 88 0
80 -88 0
-87 -88 0
80 -87 89 0
-80 -89 0
87 -89 0
88 89 90 0
-88 -90 0
-89 -90 0
-25 42 91 0
25 -91 0
-42 -91 0
-91 -61 92 0
91 -92 0
61 -92 0
-92 -27 93 0
92 -93 0
27 -93 0
25 42 94 0
-25 -94 0
-42 -94 0
94 -61 95 0
-94 -95 0
61 -95 0
95 96 97 0
-95 -97 0
-96 -97 0
-95 -96 98 0
95 -98 0
96 -98 0
97 98 99 0
-97 -99 0
-98 -99 0
93 -99 100 0
-93 -100 0
99 -100 0
-93 99 101 0
93 -101 0
-99 -101 0
100 101 102 0
-100 -102 0
-101 -102 0
-90 -102 103 0
90 -103 0
102 -103 0
79 103 104 0
-79 -104 0
-103 -104 0
90 102 105 0
-90 -105 0
-102 -105 0
104 105 106 0
-104 -106 0
-105 -106 0
89 86 107 0
-89 -107 0
-86 -107 0
82 -96 108 0
-82 -108 0
96 -108 0
-82 96 109 0
82 -109 0
-96 -109 0
108 109 110 0
-108 -110 0
-109 -110 0
110 111 112 0
-110 -112 0
-111 -112 0
-110 -111 113 0
110 -113 0
111 -113 0
112 113 114 0
-112 -114 0
-113 -114 0
-107 114 115 0
107 -115 0
-114 -115 0
107 -114 116 0
-107 -116 0
114 -116 0
115 116 117 0
-115 -117 0
-116 -117 0
-98 118 119 0
98 -119 0
-118 -119 0
98 -118 120 0
-98 -120 0
118 -120 0
119 120 121 0
-119 -121 0
-120 -121 0
121 101 122 0
-121 -122 0
-101 -122 0
-121 -101 123 0
121 -123 0
101 -123 0
122 123 124 0
-122 -124 0
-123 -124 0
-117 -124 125 0
117 -125 0
124 -125 0
106 125 126 0
-106 -126 0
-125 -126 0
117 124 127 0
-117 -127 0
-124 -127 0
126 127 128 0
-126 -128 0
-127 -128 0
-129 -118 130 0
129 -130 0
118 -130 0
129 118 131 0
-129 -131 0
-118 -131 0
130 131 132 0
-130 -132 0
-131 -132 0
-132 109 133 0
132 -133 0
-109 -133 0
132 -109 134 0
-132 -134 0
109 -134 0
133 134 135 0
-133 -135 0
-134 -135 0
116 113 136 0
-116 -136 0
-113 -136 0
135 136 137 0
-135 -137 0
-136 -137 0
-135 -136 138 0
135 -138 0
136 -138 0
137 138 139 0
-137 -139 0
-138 -139 0
-128 -139 140 0
128 -140 0
139 -140 0
140 -123 141 0
-140 -141 0
123 -141 0
128 139 142 0
-128 -142 0
-139 -142 0
142 123 143 0
-142 -143 0
-123 -143 0
141 143 144 0
-141 -144 0
-143 -144 0
140 -120 145 0
-140 -145 0
120 -145 0
144 145 146 0
-144 -146 0
-145 -146 0
146 0
